1 1 0
1 2 666
1 3 281
1 4 396
1 5 291
1 6 326
1 7 641
1 8 427
1 9 600
1 10 561
1 11 1041
1 12 655
1 13 975
1 14 1121
1 15 299
1 16 260
1 17 430
1 18 162
1 19 305
1 20 210
1 21 287
1 22 46
1 23 181
1 24 275
1 25 410
1 26 729
1 27 799
1 28 707
1 29 406
1 30 360
1 31 146
1 32 91
1 33 827
1 34 135
1 35 122
1 36 125
1 37 208
1 38 240
1 39 166
1 40 209
1 41 395
1 42 566
1 43 464
1 44 154
1 45 240
1 46 280
1 47 791
1 48 267
1 49 64
1 50 217
1 51 789
1 52 1220
2 1 666
2 2 0
2 3 649
2 4 1047
2 5 945
2 6 978
2 7 45
2 8 956
2 9 1135
2 10 1133
2 11 1639
2 12 1259
2 13 1440
2 14 1516
2 15 958
2 16 724
2 17 495
2 18 595
2 19 843
2 20 564
2 21 392
2 22 636
2 23 510
2 24 922
2 25 1029
2 26 1192
2 27 1302
2 28 1244
2 29 635
2 30 390
2 31 541
2 32 730
2 33 1489
2 34 782
2 35 777
2 36 785
2 37 858
2 38 897
2 39 828
2 40 870
2 41 896
2 42 103
2 43 1124
2 44 745
2 45 823
2 46 859
2 47 1151
2 48 910
2 49 728
2 50 596
2 51 1422
2 52 1716
3 1 281
3 2 649
3 3 0
3 4 604
3 5 509
3 6 543
3 7 611
3 8 308
3 9 486
3 10 487
3 11 1267
3 12 891
3 13 1248
3 14 1400
3 15 505
3 16 537
3 17 217
3 18 135
3 19 207
3 20 441
3 21 289
3 22 241
3 23 361
3 24 506
3 25 653
3 26 1006
3 27 1068
3 28 970
3 29 651
3 30 504
3 31 209
3 32 245
3 33 903
3 34 394
3 35 374
3 36 368
3 37 447
3 38 462
3 39 392
3 40 427
3 41 247
3 42 550
3 43 557
3 44 434
3 45 220
3 46 553
3 47 1072
3 48 505
3 49 288
3 50 463
3 51 995
3 52 1484
4 1 396
4 2 1047
4 3 604
4 4 0
4 5 104
4 6 70
4 7 1026
4 8 525
4 9 611
4 10 534
4 11 663
4 12 294
4 13 711
4 14 897
4 15 100
4 16 384
4 17 800
4 18 532
4 19 475
4 20 501
4 21 681
4 22 437
4 23 538
4 24 125
4 25 109
4 26 516
4 27 527
4 28 417
4 29 580
4 30 690
4 31 541
4 32 371
4 33 517
4 34 267
4 35 275
4 36 271
4 37 190
4 38 155
4 39 230
4 40 188
4 41 545
4 42 950
4 43 245
4 44 307
4 45 411
4 46 231
4 47 660
4 48 137
4 49 345
4 50 478
4 51 397
4 52 909
5 1 291
5 2 945
5 3 509
5 4 104
5 5 0
5 6 35
5 7 924
5 8 471
5 9 584
5 10 513
5 11 761
5 12 382
5 13 769
5 14 944
5 15 25
5 16 309
5 17 700
5 18 430
5 19 401
5 20 407
5 21 577
5 22 332
5 23 437
5 24 32
5 25 150
5 26 552
5 27 584
5 28 479
5 29 510
5 30 594
5 31 437
5 32 270
5 33 590
5 34 163
5 35 171
5 36 166
5 37 87
5 38 51
5 39 127
5 40 85
5 41 480
5 42 848
5 43 267
5 44 212
5 45 331
5 46 171
5 47 674
5 48 47
5 49 242
5 50 387
5 51 500
5 52 984
6 1 326
6 2 978
6 3 543
6 4 70
6 5 35
6 6 0
6 7 957
6 8 492
6 9 596
6 10 523
6 11 726
6 12 349
6 13 744
6 14 923
6 15 40
6 16 329
6 17 735
6 18 466
6 19 428
6 20 435
6 21 612
6 22 368
6 23 469
6 24 57
6 25 124
6 26 533
6 27 559
6 28 452
6 29 528
6 30 624
6 31 472
6 32 305
6 33 568
6 34 197
6 35 206
6 36 201
6 37 121
6 38 86
6 39 162
6 40 120
6 41 504
6 42 881
6 43 260
6 44 241
6 45 360
6 46 182
6 47 662
6 48 71
6 49 277
6 50 414
6 51 465
6 52 955
7 1 641
7 2 45
7 3 611
7 4 1026
7 5 924
7 6 957
7 7 0
7 8 918
7 9 1096
7 10 1096
7 11 1627
7 12 1245
7 13 1440
7 14 1522
7 15 935
7 16 714
7 17 451
7 18 562
7 19 807
7 20 552
7 21 362
7 22 609
7 23 491
7 24 901
7 25 1012
7 26 1190
7 27 1298
7 28 1237
7 29 637
7 30 386
7 31 512
7 32 701
7 33 1460
7 34 760
7 35 754
7 36 762
7 37 836
7 38 875
7 39 804
7 40 847
7 41 858
7 42 76
7 43 1095
7 44 727
7 45 789
7 46 844
7 47 1157
7 48 890
7 49 702
7 50 585
7 51 1405
7 52 1715
8 1 427
8 2 956
8 3 308
8 4 525
8 5 471
8 6 492
8 7 918
8 8 0
8 9 183
8 10 180
8 11 1145
8 12 812
8 13 1234
8 14 1414
8 15 453
8 16 661
8 17 507
8 18 381
8 19 126
8 20 636
8 21 580
8 22 415
8 23 587
8 24 487
8 25 616
8 26 1023
8 27 1049
8 28 941
8 29 831
8 30 759
8 31 457
8 32 339
8 33 645
8 34 455
8 35 435
8 36 422
8 37 461
8 38 446
8 39 414
8 40 422
8 41 64
8 42 856
8 43 359
8 44 530
8 45 187
8 46 599
8 47 1136
8 48 495
8 49 383
8 50 644
8 51 860
8 52 1430
9 1 600
9 2 1135
9 3 486
9 4 611
9 5 584
9 6 596
9 7 1096
9 8 183
9 9 0
9 10 83
9 11 1166
9 12 874
9 13 1317
9 14 1507
9 15 561
9 16 818
9 17 670
9 18 565
9 19 308
9 20 810
9 21 763
9 22 593
9 23 767
9 24 606
9 25 714
9 26 1126
9 27 1135
9 28 1024
9 29 998
9 30 940
9 31 640
9 32 510
9 33 570
9 34 607
9 35 589
9 36 575
9 37 596
9 38 572
9 39 558
9 40 555
9 41 239
9 42 1036
9 43 390
9 44 686
9 45 361
9 46 734
9 47 1257
9 48 618
9 49 551
9 50 815
9 51 883
9 52 1487
10 1 561
10 2 1133
10 3 487
10 4 534
10 5 513
10 6 523
10 7 1096
10 8 180
10 9 83
10 10 0
10 11 1083
10 12 792
10 13 1237
10 14 1428
10 15 490
10 16 764
10 17 686
10 18 548
10 19 291
10 20 770
10 21 751
10 22 560
10 23 735
10 24 538
10 25 639
10 26 1050
10 27 1055
10 28 945
10 29 950
10 30 912
10 31 619
10 32 471
10 33 501
10 34 552
10 35 536
10 36 521
10 37 534
10 38 506
10 39 500
10 40 492
10 41 244
10 42 1032
10 43 308
10 44 632
10 45 329
10 46 670
10 47 1185
10 48 550
10 49 507
10 50 772
10 51 800
10 52 1404
11 1 1041
11 2 1639
11 3 1267
11 4 663
11 5 761
11 6 726
11 7 1627
11 8 1145
11 9 1166
11 10 1083
11 11 0
11 12 387
11 13 443
11 14 620
11 15 762
11 16 915
11 17 1461
11 18 1190
11 19 1124
11 20 1076
11 21 1314
11 22 1086
11 23 1144
11 24 770
11 25 631
11 26 541
11 27 417
11 28 418
11 29 1042
11 30 1251
11 31 1187
11 32 1031
11 33 706
11 34 906
11 35 920
11 36 920
11 37 835
11 38 810
11 39 885
11 40 846
11 41 1180
11 42 1552
11 43 789
11 44 913
11 45 1068
11 46 787
11 47 705
11 48 775
11 49 1000
11 50 1043
11 51 285
11 52 399
12 1 655
12 2 1259
12 3 891
12 4 294
12 5 382
12 6 349
12 7 1245
12 8 812
12 9 874
12 10 792
12 11 387
12 12 0
12 13 452
12 14 653
12 15 388
12 16 538
12 17 1078
12 18 807
12 19 769
12 20 694
12 21 927
12 22 700
12 23 758
12 24 388
12 25 245
12 26 335
12 27 283
12 28 182
12 29 688
12 30 875
12 31 800
12 32 651
12 33 584
12 34 520
12 35 535
12 36 536
12 37 451
12 38 430
12 39 503
12 40 465
12 41 836
12 42 1170
12 43 484
12 44 526
12 45 705
12 46 401
12 47 517
12 48 391
12 49 617
12 50 663
12 51 188
12 52 619
13 1 975
13 2 1440
13 3 1248
13 4 711
13 5 769
13 6 744
13 7 1440
13 8 1234
13 9 1317
13 10 1237
13 11 443
13 12 452
13 13 0
13 14 206
13 15 784
13 16 759
13 17 1400
13 18 1137
13 19 1169
13 20 920
13 21 1195
13 22 1020
13 23 1008
13 24 760
13 25 620
13 26 254
13 27 185
13 28 294
13 29 805
13 30 1056
13 31 1104
13 32 1004
13 33 1010
13 34 854
13 35 874
13 36 881
13 37 807
13 38 804
13 39 863
13 40 836
13 41 1248
13 42 1371
13 43 931
13 44 822
13 45 1098
13 46 696
13 47 324
13 48 756
13 49 959
13 50 885
13 51 540
13 52 279
14 1 1121
14 2 1516
14 3 1400
14 4 897
14 5 944
14 6 923
14 7 1522
14 8 1414
14 9 1507
14 10 1428
14 11 620
14 12 653
14 13 206
14 14 0
14 15 962
14 16 884
14 17 1534
14 18 1281
14 19 1341
14 20 1035
14 21 1313
14 22 1165
14 23 1127
14 24 931
14 25 799
14 26 396
14 27 374
14 28 484
14 29 887
14 30 1146
14 31 1239
14 32 1161
14 33 1216
14 34 1010
14 35 1031
14 36 1039
14 37 971
14 38 975
14 39 1026
14 40 1004
14 41 1423
14 42 1457
14 43 1125
14 44 966
14 45 1268
14 46 849
14 47 365
14 48 925
14 49 1114
14 50 1000
14 51 745
14 52 319
15 1 299
15 2 958
15 3 505
15 4 100
15 5 25
15 6 40
15 7 935
15 8 453
15 9 561
15 10 490
15 11 762
15 12 388
15 13 784
15 14 962
15 15 0
15 16 332
15 17 700
15 18 432
15 19 388
15 20 425
15 21 586
15 22 339
15 23 451
15 24 56
15 25 164
15 26 571
15 27 599
15 28 492
15 29 533
15 30 612
15 31 443
15 32 270
15 33 569
15 34 176
15 35 181
15 36 175
15 37 103
15 38 61
15 39 133
15 40 90
15 41 464
15 42 860
15 43 242
15 44 231
15 45 320
15 46 196
15 47 696
15 48 72
15 49 246
15 50 406
15 51 497
15 52 995
16 1 260
16 2 724
16 3 537
16 4 384
16 5 309
16 6 329
16 7 714
16 8 661
16 9 818
16 10 764
16 11 915
16 12 538
16 13 759
16 14 884
16 15 332
16 16 0
16 17 651
16 18 408
16 19 549
16 20 165
16 21 435
16 22 297
16 23 249
16 24 278
16 25 326
16 26 506
16 27 598
16 28 526
16 29 201
16 30 337
16 31 357
16 32 331
16 33 897
16 34 211
16 35 229
16 36 243
16 37 244
16 38 284
16 39 265
16 40 282
16 41 641
16 42 640
16 43 570
16 44 132
16 45 476
16 46 156
16 47 539
16 48 262
16 49 282
16 50 130
16 51 710
16 52 1023
17 1 430
17 2 495
17 3 217
17 4 800
17 5 700
17 6 735
17 7 451
17 8 507
17 9 670
17 10 686
17 11 1461
17 12 1078
17 13 1400
17 14 1534
17 15 700
17 16 651
17 17 0
17 18 272
17 19 421
17 20 512
17 21 253
17 22 383
17 23 418
17 24 691
17 25 834
17 26 1149
17 27 1226
17 28 1136
17 29 707
17 30 492
17 31 296
17 32 430
17 33 1120
17 34 561
17 35 545
17 36 543
17 37 627
17 38 650
17 39 576
17 40 615
17 41 443
17 42 408
17 43 773
17 44 579
17 45 437
17 46 708
17 47 1188
17 48 687
17 49 462
17 50 544
17 51 1197
17 52 1649
18 1 162
18 2 595
18 3 135
18 4 532
18 5 430
18 6 466
18 7 562
18 8 381
18 9 565
18 10 548
18 11 1190
18 12 807
18 13 1137
18 14 1281
18 15 432
18 16 408
18 17 272
18 18 0
18 19 258
18 20 306
18 21 205
18 22 116
18 23 229
18 24 420
18 25 563
18 26 890
18 27 960
18 28 867
18 29 517
18 30 385
18 31 80
18 32 163
18 33 903
18 34 290
18 35 273
18 36 271
18 37 356
18 38 380
18 39 305
18 40 345
18 41 330
18 42 493
18 43 541
18 44 315
18 45 228
18 46 441
18 47 946
18 48 416
18 49 190
18 50 329
18 51 929
18 52 1381
19 1 305
19 2 843
19 3 207
19 4 475
19 5 401
19 6 428
19 7 807
19 8 126
19 9 308
19 10 291
19 11 1124
19 12 769
19 13 1169
19 14 1341
19 15 388
19 16 549
19 17 421
19 18 258
19 19 0
19 20 512
19 21 461
19 22 290
19 23 461
19 24 410
19 25 551
19 26 945
19 27 985
19 28 879
19 29 711
19 30 633
19 31 332
19 32 220
19 33 701
19 34 351
19 35 330
19 36 318
19 37 371
19 38 366
19 39 319
19 40 336
19 41 92
19 42 742
19 43 368
19 44 420
19 45 75
19 46 504
19 47 1045
19 48 415
19 49 267
19 50 522
19 51 843
19 52 1382
20 1 210
20 2 564
20 3 441
20 4 501
20 5 407
20 6 435
20 7 552
20 8 636
20 9 810
20 10 770
20 11 1076
20 12 694
20 13 920
20 14 1035
20 15 425
20 16 165
20 17 512
20 18 306
20 19 512
20 20 0
20 21 279
20 22 224
20 23 94
20 24 378
20 25 467
20 26 666
20 27 762
20 28 691
20 29 210
20 30 189
20 31 236
20 32 300
20 33 990
20 34 257
20 35 262
20 36 275
20 37 323
20 38 366
20 39 314
20 40 348
20 41 601
20 42 477
20 43 638
20 44 194
20 45 450
20 46 295
20 47 680
20 48 365
20 49 264
20 50 35
20 51 859
20 52 1186
21 1 287
21 2 392
21 3 289
21 4 681
21 5 577
21 6 612
21 7 362
21 8 580
21 9 763
21 10 751
21 11 1314
21 12 927
21 13 1195
21 14 1313
21 15 586
21 16 435
21 17 253
21 18 205
21 19 461
21 20 279
21 21 0
21 22 251
21 23 187
21 24 558
21 25 685
21 26 941
21 27 1031
21 28 952
21 29 459
21 30 242
21 31 150
21 32 340
21 33 1098
21 34 416
21 35 406
21 36 411
21 37 492
21 38 527
21 39 453
21 40 496
21 41 525
21 42 290
21 43 733
21 44 402
21 45 433
21 46 530
21 47 958
21 48 549
21 49 344
21 50 313
21 51 1072
21 52 1457
22 1 46
22 2 636
22 3 241
22 4 437
22 5 332
22 6 368
22 7 609
22 8 415
22 9 593
22 10 560
22 11 1086
22 12 700
22 13 1020
22 14 1165
22 15 339
22 16 297
22 17 383
22 18 116
22 19 290
22 20 224
22 21 251
22 22 0
22 23 175
22 24 318
22 25 455
22 26 774
22 27 844
22 28 753
22 29 429
22 30 353
22 31 104
22 32 97
22 33 853
22 34 180
22 35 165
22 36 167
22 37 251
22 38 281
22 39 206
22 40 249
22 41 378
22 42 535
22 43 488
22 44 199
22 45 233
22 46 326
22 47 832
22 48 311
22 49 94
22 50 237
22 51 832
22 52 1266
23 1 181
23 2 510
23 3 361
23 4 538
23 5 437
23 6 469
23 7 491
23 8 587
23 9 767
23 10 735
23 11 1144
23 12 758
23 13 1008
23 14 1127
23 15 451
23 16 249
23 17 418
23 18 229
23 19 461
23 20 94
23 21 187
23 22 175
23 23 0
23 24 412
23 25 522
23 26 754
23 27 846
23 28 770
23 29 296
23 30 179
23 31 152
23 32 267
23 33 1002
23 34 275
23 35 273
23 36 283
23 37 349
23 38 390
23 39 326
23 40 366
23 41 545
23 42 415
23 43 641
23 44 236
23 45 407
23 46 357
23 47 774
23 48 401
23 49 244
23 50 127
23 51 914
23 52 1271
24 1 275
24 2 922
24 3 506
24 4 125
24 5 32
24 6 57
24 7 901
24 8 487
24 9 606
24 10 538
24 11 770
24 12 388
24 13 760
24 14 931
24 15 56
24 16 278
24 17 691
24 18 420
24 19 410
24 20 378
24 21 558
24 22 318
24 23 412
24 24 0
24 25 147
24 26 537
24 27 576
24 28 472
24 29 478
24 30 567
24 31 421
24 32 263
24 33 621
24 34 142
24 35 153
24 36 151
24 37 67
24 38 45
24 39 115
24 40 79
24 41 492
24 42 825
24 43 298
24 44 184
24 45 338
24 46 140
24 47 653
24 48 16
24 49 230
24 50 358
24 51 515
24 52 982
25 1 410
25 2 1029
25 3 653
25 4 109
25 5 150
25 6 124
25 7 1012
25 8 616
25 9 714
25 10 639
25 11 631
25 12 245
25 13 620
25 14 799
25 15 164
25 16 326
25 17 834
25 18 563
25 19 551
25 20 467
25 21 685
25 22 455
25 23 522
25 24 147
25 25 0
25 26 412
25 27 435
25 28 329
25 29 509
25 30 654
25 31 556
25 32 409
25 33 606
25 34 275
25 35 290
25 36 292
25 37 207
25 38 191
25 39 261
25 40 226
25 41 628
25 42 936
25 43 354
25 44 286
25 45 481
25 46 173
25 47 551
25 48 148
25 49 373
25 50 439
25 51 393
25 52 835
26 1 729
26 2 1192
26 3 1006
26 4 516
26 5 552
26 6 533
26 7 1190
26 8 1023
26 9 1126
26 10 1050
26 11 541
26 12 335
26 13 254
26 14 396
26 15 571
26 16 506
26 17 1149
26 18 890
26 19 945
26 20 666
26 21 941
26 22 774
26 23 754
26 24 537
26 25 412
26 26 0
26 27 126
26 28 159
26 29 559
26 30 805
26 31 853
26 32 766
26 33 917
26 34 614
26 35 635
26 36 644
26 37 576
26 38 580
26 39 630
26 40 609
26 41 1029
26 42 1120
26 43 756
26 44 575
26 45 872
26 46 454
26 47 186
26 48 531
26 49 719
26 50 631
26 51 496
26 52 525
27 1 799
27 2 1302
27 3 1068
27 4 527
27 5 584
27 6 559
27 7 1298
27 8 1049
27 9 1135
27 10 1055
27 11 417
27 12 283
27 13 185
27 14 374
27 15 599
27 16 598
27 17 1226
27 18 960
27 19 985
27 20 762
27 21 1031
27 22 844
27 23 846
27 24 576
27 25 435
27 26 126
27 27 0
27 28 110
27 29 674
27 30 912
27 31 931
27 32 823
27 33 862
27 34 674
27 35 694
27 36 700
27 37 624
27 38 620
27 39 680
27 40 653
27 41 1063
27 42 1226
27 43 751
27 44 647
27 45 914
27 46 519
27 47 292
27 48 572
27 49 779
27 50 726
27 51 410
27 52 426
28 1 707
28 2 1244
28 3 970
28 4 417
28 5 479
28 6 452
28 7 1237
28 8 941
28 9 1024
28 10 945
28 11 418
28 12 182
28 13 294
28 14 484
28 15 492
28 16 526
28 17 1136
28 18 867
28 19 879
28 20 691
28 21 952
28 22 753
28 23 770
28 24 472
28 25 329
28 26 159
28 27 110
28 28 0
28 29 630
28 30 853
28 31 844
28 32 725
28 33 767
28 34 579
28 35 598
28 36 603
28 37 524
28 38 517
28 39 580
28 40 550
28 41 956
28 42 1163
28 43 641
28 44 559
28 45 809
28 46 429
28 47 344
28 48 470
28 49 683
28 50 656
28 51 337
28 52 514
29 1 406
29 2 635
29 3 651
29 4 580
29 5 510
29 6 528
29 7 637
29 8 831
29 9 998
29 10 950
29 11 1042
29 12 688
29 13 805
29 14 887
29 15 533
29 16 201
29 17 707
29 18 517
29 19 711
29 20 210
29 21 459
29 22 429
29 23 296
29 24 478
29 25 509
29 26 559
29 27 674
29 28 630
29 29 0
29 30 260
29 31 445
29 32 492
29 33 1096
29 34 402
29 35 416
29 36 431
29 37 444
29 38 484
29 39 459
29 40 481
29 41 802
29 42 571
29 43 771
29 44 322
29 45 644
29 46 349
29 47 523
29 48 462
29 49 448
29 50 191
29 51 871
29 52 1082
30 1 360
30 2 390
30 3 504
30 4 690
30 5 594
30 6 624
30 7 386
30 8 759
30 9 940
30 10 912
30 11 1251
30 12 875
30 13 1056
30 14 1146
30 15 612
30 16 337
30 17 492
30 18 385
30 19 633
30 20 189
30 21 242
30 22 353
30 23 179
30 24 567
30 25 654
30 26 805
30 27 912
30 28 853
30 29 260
30 30 0
30 31 305
30 32 447
30 33 1173
30 34 439
30 35 441
30 36 453
30 37 509
30 38 552
30 39 494
30 40 532
30 41 713
30 42 315
30 43 816
30 44 383
30 45 583
30 46 481
30 47 782
30 48 553
30 49 423
30 50 215
30 51 1044
30 52 1330
31 1 146
31 2 541
31 3 209
31 4 541
31 5 437
31 6 472
31 7 512
31 8 457
31 9 640
31 10 619
31 11 1187
31 12 800
31 13 1104
31 14 1239
31 15 443
31 16 357
31 17 296
31 18 80
31 19 332
31 20 236
31 21 150
31 22 104
31 23 152
31 24 421
31 25 556
31 26 853
31 27 931
31 28 844
31 29 445
31 30 305
31 31 0
31 32 190
31 33 948
31 34 281
31 35 268
31 36 271
31 37 354
31 38 386
31 39 310
31 40 353
31 41 409
31 42 439
31 43 583
31 44 285
31 45 293
31 46 416
31 47 896
31 48 414
31 49 198
31 50 262
31 51 936
31 52 1356
32 1 91
32 2 730
32 3 245
32 4 371
32 5 270
32 6 305
32 7 701
32 8 339
32 9 510
32 10 471
32 11 1031
32 12 651
32 13 1004
32 14 1161
32 15 270
32 16 331
32 17 430
32 18 163
32 19 220
32 20 300
32 21 340
32 22 97
32 23 267
32 24 263
32 25 409
32 26 766
32 27 823
32 28 725
32 29 492
32 30 447
32 31 190
32 32 0
32 33 759
32 34 151
32 35 130
32 36 123
32 37 203
32 38 221
32 39 148
32 40 186
32 41 311
32 42 628
32 43 394
32 44 207
32 45 151
32 46 312
32 47 845
32 48 261
32 49 50
32 50 306
32 51 767
32 52 1238
33 1 827
33 2 1489
33 3 903
33 4 517
33 5 590
33 6 568
33 7 1460
33 8 645
33 9 570
33 10 501
33 11 706
33 12 584
33 13 1010
33 14 1216
33 15 569
33 16 897
33 17 1120
33 18 903
33 19 701
33 20 990
33 21 1098
33 22 853
33 23 1002
33 24 621
33 25 606
33 26 917
33 27 862
33 28 767
33 29 1096
33 30 1173
33 31 948
33 32 759
33 33 0
33 34 734
33 35 732
33 36 720
33 37 669
33 38 625
33 39 679
33 40 642
33 41 704
33 42 1387
33 43 365
33 44 799
33 45 688
33 46 747
33 47 1095
33 48 636
33 49 764
33 50 974
33 51 475
33 52 1089
34 1 135
34 2 782
34 3 394
34 4 267
34 5 163
34 6 197
34 7 760
34 8 455
34 9 607
34 10 552
34 11 906
34 12 520
34 13 854
34 14 1010
34 15 176
34 16 211
34 17 561
34 18 290
34 19 351
34 20 257
34 21 416
34 22 180
34 23 275
34 24 142
34 25 275
34 26 614
34 27 674
34 28 579
34 29 402
34 30 439
34 31 281
34 32 151
34 33 734
34 34 0
34 35 21
34 36 34
34 37 76
34 38 115
34 39 59
34 40 92
34 41 442
34 42 684
34 43 382
34 44 80
34 45 276
34 46 161
34 47 697
34 48 133
34 49 105
34 50 244
34 51 656
34 52 1093
35 1 122
35 2 777
35 3 374
35 4 275
35 5 171
35 6 206
35 7 754
35 8 435
35 9 589
35 10 536
35 11 920
35 12 535
35 13 874
35 14 1031
35 15 181
35 16 229
35 17 545
35 18 273
35 19 330
35 20 262
35 21 406
35 22 165
35 23 273
35 24 153
35 25 290
35 26 635
35 27 694
35 28 598
35 29 416
35 30 441
35 31 268
35 32 130
35 33 732
35 34 21
35 35 0
35 36 15
35 37 86
35 38 121
35 39 53
35 40 93
35 41 421
35 42 678
35 43 376
35 44 96
35 45 256
35 46 182
35 47 718
35 48 146
35 49 85
35 50 252
35 51 668
35 52 1112
36 1 125
36 2 785
36 3 368
36 4 271
36 5 166
36 6 201
36 7 762
36 8 422
36 9 575
36 10 521
36 11 920
36 12 536
36 13 881
36 14 1039
36 15 175
36 16 243
36 17 543
36 18 271
36 19 318
36 20 275
36 21 411
36 22 167
36 23 283
36 24 151
36 25 292
36 26 644
36 27 700
36 28 603
36 29 431
36 30 453
36 31 271
36 32 123
36 33 720
36 34 34
36 35 15
36 36 0
36 37 85
36 38 115
36 39 43
36 40 85
36 41 408
36 42 686
36 43 364
36 44 111
36 45 243
36 46 191
36 47 730
36 48 145
36 49 81
36 50 266
36 51 665
36 52 1116
37 1 208
37 2 858
37 3 447
37 4 190
37 5 87
37 6 121
37 7 836
37 8 461
37 9 596
37 10 534
37 11 835
37 12 451
37 13 807
37 14 971
37 15 103
37 16 244
37 17 627
37 18 356
37 19 371
37 20 323
37 21 492
37 22 251
37 23 349
37 24 67
37 25 207
37 26 576
37 27 624
37 28 524
37 29 444
37 30 509
37 31 354
37 32 203
37 33 669
37 34 76
37 35 86
37 36 85
37 37 0
37 38 43
37 39 56
37 40 41
37 41 458
37 42 760
37 43 327
37 44 130
37 45 297
37 46 139
37 47 676
37 48 60
37 49 166
37 50 305
37 51 581
37 52 1036
38 1 240
38 2 897
38 3 462
38 4 155
38 5 51
38 6 86
38 7 875
38 8 446
38 9 572
38 10 506
38 11 810
38 12 430
38 13 804
38 14 975
38 15 61
38 16 284
38 17 650
38 18 380
38 19 366
38 20 366
38 21 527
38 22 281
38 23 390
38 24 45
38 25 191
38 26 580
38 27 620
38 28 517
38 29 484
38 30 552
38 31 386
38 32 221
38 33 625
38 34 115
38 35 121
38 36 115
38 37 43
38 38 0
38 39 76
38 40 35
38 41 449
38 42 799
38 43 286
38 44 173
38 45 294
38 46 164
38 47 691
38 48 49
38 49 191
38 50 348
38 51 551
38 52 1026
39 1 166
39 2 828
39 3 392
39 4 230
39 5 127
39 6 162
39 7 804
39 8 414
39 9 558
39 10 500
39 11 885
39 12 503
39 13 863
39 14 1026
39 15 133
39 16 265
39 17 576
39 18 305
39 19 319
39 20 314
39 21 453
39 22 206
39 23 326
39 24 115
39 25 261
39 26 630
39 27 680
39 28 580
39 29 459
39 30 494
39 31 310
39 32 148
39 33 679
39 34 59
39 35 53
39 36 43
39 37 56
39 38 76
39 39 0
39 40 43
39 41 407
39 42 729
39 43 324
39 44 136
39 45 244
39 46 186
39 47 726
39 48 113
39 49 115
39 50 302
39 51 626
39 52 1092
40 1 209
40 2 870
40 3 427
40 4 188
40 5 85
40 6 120
40 7 847
40 8 422
40 9 555
40 10 492
40 11 846
40 12 465
40 13 836
40 14 1004
40 15 90
40 16 282
40 17 615
40 18 345
40 19 336
40 20 348
40 21 496
40 22 249
40 23 366
40 24 79
40 25 226
40 26 609
40 27 653
40 28 550
40 29 481
40 30 532
40 31 353
40 32 186
40 33 642
40 34 92
40 35 93
40 36 85
40 37 41
40 38 35
40 39 43
40 40 0
40 41 421
40 42 771
40 43 293
40 44 162
40 45 263
40 46 179
40 47 714
40 48 81
40 49 157
40 50 334
40 51 585
40 52 1060
41 1 395
41 2 896
41 3 247
41 4 545
41 5 480
41 6 504
41 7 858
41 8 64
41 9 239
41 10 244
41 11 1180
41 12 836
41 13 1248
41 14 1423
41 15 464
41 16 641
41 17 443
41 18 330
41 19 92
41 20 601
41 21 525
41 22 378
41 23 545
41 24 492
41 25 628
41 26 1029
41 27 1063
41 28 956
41 29 802
41 30 713
41 31 409
41 32 311
41 33 704
41 34 442
41 35 421
41 36 408
41 37 458
41 38 449
41 39 407
41 40 421
41 41 0
41 42 796
41 43 402
41 44 512
41 45 166
41 46 593
41 47 1133
41 48 499
41 49 359
41 50 612
41 51 896
41 52 1453
42 1 566
42 2 103
42 3 550
42 4 950
42 5 848
42 6 881
42 7 76
42 8 856
42 9 1036
42 10 1032
42 11 1552
42 12 1170
42 13 1371
42 14 1457
42 15 860
42 16 640
42 17 408
42 18 493
42 19 742
42 20 477
42 21 290
42 22 535
42 23 415
42 24 825
42 25 936
42 26 1120
42 27 1226
42 28 1163
42 29 571
42 30 315
42 31 439
42 32 628
42 33 1387
42 34 684
42 35 678
42 36 686
42 37 760
42 38 799
42 39 729
42 40 771
42 41 796
42 42 0
42 43 1022
42 44 651
42 45 721
42 46 769
42 47 1093
42 48 814
42 49 627
42 50 510
42 51 1329
42 52 1645
43 1 464
43 2 1124
43 3 557
43 4 245
43 5 267
43 6 260
43 7 1095
43 8 359
43 9 390
43 10 308
43 11 789
43 12 484
43 13 931
43 14 1125
43 15 242
43 16 570
43 17 773
43 18 541
43 19 368
43 20 638
43 21 733
43 22 488
43 23 641
43 24 298
43 25 354
43 26 756
43 27 751
43 28 641
43 29 771
43 30 816
43 31 583
43 32 394
43 33 365
43 34 382
43 35 376
43 36 364
43 37 327
43 38 286
43 39 324
43 40 293
43 41 402
43 42 1022
43 43 0
43 44 455
43 45 337
43 46 437
43 47 904
43 48 313
43 49 400
43 50 626
43 51 504
43 52 1097
44 1 154
44 2 745
44 3 434
44 4 307
44 5 212
44 6 241
44 7 727
44 8 530
44 9 686
44 10 632
44 11 913
44 12 526
44 13 822
44 14 966
44 15 231
44 16 132
44 17 579
44 18 315
44 19 420
44 20 194
44 21 402
44 22 199
44 23 236
44 24 184
44 25 286
44 26 575
44 27 647
44 28 559
44 29 322
44 30 383
44 31 285
44 32 207
44 33 799
44 34 80
44 35 96
44 36 111
44 37 130
44 38 173
44 39 136
44 40 162
44 41 512
44 42 651
44 43 455
44 44 0
44 45 347
44 46 131
44 47 640
44 48 170
44 49 157
44 50 175
44 51 678
44 52 1071
45 1 240
45 2 823
45 3 220
45 4 411
45 5 331
45 6 360
45 7 789
45 8 187
45 9 361
45 10 329
45 11 1068
45 12 705
45 13 1098
45 14 1268
45 15 320
45 16 476
45 17 437
45 18 228
45 19 75
45 20 450
45 21 433
45 22 233
45 23 407
45 24 338
45 25 481
45 26 872
45 27 914
45 28 809
45 29 644
45 30 583
45 31 293
45 32 151
45 33 688
45 34 276
45 35 256
45 36 243
45 37 297
45 38 294
45 39 244
45 40 263
45 41 166
45 42 721
45 43 337
45 44 347
45 45 0
45 46 430
45 47 970
45 48 343
45 49 196
45 50 457
45 51 790
45 52 1315
46 1 280
46 2 859
46 3 553
46 4 231
46 5 171
46 6 182
46 7 844
46 8 599
46 9 734
46 10 670
46 11 787
46 12 401
46 13 696
46 14 849
46 15 196
46 16 156
46 17 708
46 18 441
46 19 504
46 20 295
46 21 530
46 22 326
46 23 357
46 24 140
46 25 173
46 26 454
46 27 519
46 28 429
46 29 349
46 30 481
46 31 416
46 32 312
46 33 747
46 34 161
46 35 182
46 36 191
46 37 139
46 38 164
46 39 186
46 40 179
46 41 593
46 42 769
46 43 437
46 44 131
46 45 430
46 46 0
46 47 540
46 48 125
46 49 265
46 50 266
46 51 564
46 52 941
47 1 791
47 2 1151
47 3 1072
47 4 660
47 5 674
47 6 662
47 7 1157
47 8 1136
47 9 1257
47 10 1185
47 11 705
47 12 517
47 13 324
47 14 365
47 15 696
47 16 539
47 17 1188
47 18 946
47 19 1045
47 20 680
47 21 958
47 22 832
47 23 774
47 24 653
47 25 551
47 26 186
47 27 292
47 28 344
47 29 523
47 30 782
47 31 896
47 32 845
47 33 1095
47 34 697
47 35 718
47 36 730
47 37 676
47 38 691
47 39 726
47 40 714
47 41 1133
47 42 1093
47 43 904
47 44 640
47 45 970
47 46 540
47 47 0
47 48 642
47 49 796
47 50 646
47 51 682
47 52 598
48 1 267
48 2 910
48 3 505
48 4 137
48 5 47
48 6 71
48 7 890
48 8 495
48 9 618
48 10 550
48 11 775
48 12 391
48 13 756
48 14 925
48 15 72
48 16 262
48 17 687
48 18 416
48 19 415
48 20 365
48 21 549
48 22 311
48 23 401
48 24 16
48 25 148
48 26 531
48 27 572
48 28 470
48 29 462
48 30 553
48 31 414
48 32 261
48 33 636
48 34 133
48 35 146
48 36 145
48 37 60
48 38 49
48 39 113
48 40 81
48 41 499
48 42 814
48 43 313
48 44 170
48 45 343
48 46 125
48 47 642
48 48 0
48 49 225
48 50 343
48 51 523
48 52 980
49 1 64
49 2 728
49 3 288
49 4 345
49 5 242
49 6 277
49 7 702
49 8 383
49 9 551
49 10 507
49 11 1000
49 12 617
49 13 959
49 14 1114
49 15 246
49 16 282
49 17 462
49 18 190
49 19 267
49 20 264
49 21 344
49 22 94
49 23 244
49 24 230
49 25 373
49 26 719
49 27 779
49 28 683
49 29 448
49 30 423
49 31 198
49 32 50
49 33 764
49 34 105
49 35 85
49 36 81
49 37 166
49 38 191
49 39 115
49 40 157
49 41 359
49 42 627
49 43 400
49 44 157
49 45 196
49 46 265
49 47 796
49 48 225
49 49 0
49 50 265
49 51 742
49 52 1197
50 1 217
50 2 596
50 3 463
50 4 478
50 5 387
50 6 414
50 7 585
50 8 644
50 9 815
50 10 772
50 11 1043
50 12 663
50 13 885
50 14 1000
50 15 406
50 16 130
50 17 544
50 18 329
50 19 522
50 20 35
50 21 313
50 22 237
50 23 127
50 24 358
50 25 439
50 26 631
50 27 726
50 28 656
50 29 191
50 30 215
50 31 262
50 32 306
50 33 974
50 34 244
50 35 252
50 36 266
50 37 305
50 38 348
50 39 302
50 40 334
50 41 612
50 42 510
50 43 626
50 44 175
50 45 457
50 46 266
50 47 646
50 48 343
50 49 265
50 50 0
50 51 830
50 52 1151
51 1 789
51 2 1422
51 3 995
51 4 397
51 5 500
51 6 465
51 7 1405
51 8 860
51 9 883
51 10 800
51 11 285
51 12 188
51 13 540
51 14 745
51 15 497
51 16 710
51 17 1197
51 18 929
51 19 843
51 20 859
51 21 1072
51 22 832
51 23 914
51 24 515
51 25 393
51 26 496
51 27 410
51 28 337
51 29 871
51 30 1044
51 31 936
51 32 767
51 33 475
51 34 656
51 35 668
51 36 665
51 37 581
51 38 551
51 39 626
51 40 585
51 41 896
51 42 1329
51 43 504
51 44 678
51 45 790
51 46 564
51 47 682
51 48 523
51 49 742
51 50 830
51 51 0
51 52 625
52 1 1220
52 2 1716
52 3 1484
52 4 909
52 5 984
52 6 955
52 7 1715
52 8 1430
52 9 1487
52 10 1404
52 11 399
52 12 619
52 13 279
52 14 319
52 15 995
52 16 1023
52 17 1649
52 18 1381
52 19 1382
52 20 1186
52 21 1457
52 22 1266
52 23 1271
52 24 982
52 25 835
52 26 525
52 27 426
52 28 514
52 29 1082
52 30 1330
52 31 1356
52 32 1238
52 33 1089
52 34 1093
52 35 1112
52 36 1116
52 37 1036
52 38 1026
52 39 1092
52 40 1060
52 41 1453
52 42 1645
52 43 1097
52 44 1071
52 45 1315
52 46 941
52 47 598
52 48 980
52 49 1197
52 50 1151
52 51 625
52 52 0